/*********************************************
 * OPL 20.1.0.0 Data
 * Author: CarlosJavier
 * Creation Date: 1/05/2022 at 1:40:20 p. m.
 *********************************************/
 
 Material_handling_cost = [[0, 0],
 							[4.00, 0],
 							[1.10, 0],
 							[0.70, 0.65],
 							[0, 0.40]];
 
 Current_location = [[300, 1200],
 						[0, 600],
 						[600, 0]];
